benchmarks_vrp/CMT4/no_cluster/CMT4_10.vrp
NAME: CMT4_10
TYPE: CVRP
COMMENT: 1028.42 - Cluster Nr.10
DIMENSION: 12
CAPACITY: 200
EDGE_WEIGHT_TYPE: EUC_2D
NODE_COORD_TYPE: TWOD_COORDS
NODE_COORD_SECTION: 
12 49 58
8 55 54
4 52 64
2 35 35
6 53 52
7 47 47
9 57 58
3 61 52
5 57 48
10 49 49
1 55 60
11 65 55
DEPOT_SECTION: 
2
-1
DEMAND_SECTION: 
7 13
10 30
4 16
2 0
6 11
3 3
11 14
1 16
12 10
8 26
9 28
5 23
EOF
