benchmarks_vrp/CMT4/no_cluster/CMT4_10.tour
NAME: CMT4_10 solution
TYPE: TOUR
TOUR_SECTION:
2 7 10 6 8 5 3 11 9 1 4 12 -1
-1
EOF